projected/problems_b25_r0_d7_m100_s666/_DIMACS/b25_d7_r0_s666_098.cnf
p cnf 178 238 25
c p show 1 2 3 4 5 6 7 8 9 10 11 12 13 14 15 16 17 18 19 20 21 22 23 24 25
-110 -6 -7 0
-111 21 0
-111 11 0
-112 111 0
-112 110 0
-113 -6 0
-113 12 0
-114 19 -12 0
-115 114 0
-115 113 0
-116 115 112 0
-117 12 19 0
-118 -24 -23 0
-119 118 0
-119 117 0
-120 -21 0
-120 -2 0
-121 3 0
-121 -15 0
-122 121 0
-122 120 0
-123 122 0
-123 119 0
-124 123 0
-124 116 0
-125 -6 -20 0
-126 -18 0
-126 11 0
-127 -11 0
-127 18 0
-128 127 126 0
-129 128 0
-129 125 0
-130 6 19 0
-131 -19 -6 0
-132 131 0
-132 130 0
-133 -12 2 0
-134 133 132 0
-135 134 129 0
-136 13 -22 0
-137 -24 -15 0
-138 137 136 0
-139 -21 0
-139 20 0
-140 -12 0
-140 -13 0
-141 140 139 0
-142 141 0
-142 138 0
-143 142 135 0
-144 143 0
-144 124 0
-145 24 2 0
-146 8 -16 0
-147 146 145 0
-148 -22 0
-148 -14 0
-149 24 0
-149 -13 0
-150 13 0
-150 -24 0
-151 150 149 0
-152 151 148 0
-153 152 147 0
-154 -21 0
-154 -22 0
-155 8 0
-155 -14 0
-156 155 0
-156 154 0
-157 -8 14 0
-158 21 22 0
-159 158 0
-159 157 0
-160 159 156 0
-161 18 -10 0
-162 9 13 0
-163 -13 -9 0
-164 163 0
-164 162 0
-165 164 161 0
-166 165 0
-166 160 0
-167 166 0
-167 153 0
-168 4 0
-169 -5 0
-169 10 0
-170 169 168 0
-171 5 -10 0
-172 -4 0
-173 172 171 0
-174 173 0
-174 170 0
-175 6 -8 0
-176 4 0
-176 -15 0
-177 176 0
-177 175 0
-178 177 174 0
-26 24 0
-26 -8 0
-27 24 0
-27 21 0
-28 27 0
-28 26 0
-29 -9 -19 0
-32 -10 0
-32 21 0
-41 32 0
-41 29 0
-48 41 28 0
-54 48 0
-54 178 0
-60 54 167 0
-30 60 0
-30 144 0
-31 2 0
-31 13 0
-33 7 -25 0
-34 33 31 0
-35 -20 0
-35 -5 0
-36 -6 0
-36 -12 0
-37 36 0
-37 35 0
-38 37 0
-38 34 0
-39 12 0
-39 -11 0
-40 1 18 0
-42 40 0
-42 39 0
-43 -15 0
-43 4 0
-44 -4 0
-44 15 0
-45 44 43 0
-46 -15 0
-46 -12 0
-47 46 0
-47 45 0
-49 15 12 0
-50 15 -4 0
-51 4 -15 0
-52 51 0
-52 50 0
-53 52 0
-53 49 0
-55 53 47 0
-56 55 42 0
-57 56 38 0
-58 25 -4 0
-59 -1 0
-59 -7 0
-61 59 58 0
-62 21 0
-62 20 0
-63 -13 -23 0
-64 63 62 0
-65 64 0
-65 61 0
-66 -9 11 0
-67 -21 0
-67 19 0
-68 67 66 0
-69 -1 -25 0
-70 -22 0
-70 20 0
-71 70 69 0
-72 22 -20 0
-73 1 0
-73 25 0
-74 73 72 0
-75 74 0
-75 71 0
-76 75 68 0
-77 76 0
-77 65 0
-78 77 0
-78 57 0
-79 -1 -3 0
-80 15 24 0
-81 80 79 0
-82 -13 -19 0
-83 4 -6 0
-84 83 0
-84 82 0
-85 84 81 0
-86 -11 -22 0
-87 6 0
-87 10 0
-88 87 86 0
-89 -3 0
-89 -22 0
-90 -17 0
-90 21 0
-91 90 89 0
-92 91 88 0
-93 92 85 0
-94 -8 0
-94 8 0
-95 4 0
-95 9 0
-96 95 0
-96 94 0
-97 7 2 0
-98 73 0
-98 97 0
-99 98 96 0
-100 8 12 0
-101 -23 -3 0
-102 101 0
-102 100 0
-103 18 0
-103 3 0
-104 -18 0
-105 104 0
-105 103 0
-106 105 0
-106 102 0
-107 106 99 0
-108 107 0
-108 93 0
-109 108 0
-109 78 0
109 30 0
-155 -157 0
-158 -154 0
-169 -171 0
-171 -169 0
-168 -172 0
-46 -49 0
-52 -45 0
-72 -70 0
-69 -73 0
