projected/problems_b25_r0_d7_m100_s666/b25_d7_r0_s666_098.smt2
(set-logic QF_UF)
(declare-fun A0 () Bool)
(declare-fun A1 () Bool)
(declare-fun A2 () Bool)
(declare-fun A3 () Bool)
(declare-fun A4 () Bool)
(declare-fun A5 () Bool)
(declare-fun A6 () Bool)
(declare-fun A7 () Bool)
(declare-fun A8 () Bool)
(declare-fun A9 () Bool)
(declare-fun A10 () Bool)
(declare-fun A11 () Bool)
(declare-fun A12 () Bool)
(declare-fun A13 () Bool)
(declare-fun A14 () Bool)
(declare-fun A15 () Bool)
(declare-fun A16 () Bool)
(declare-fun A17 () Bool)
(declare-fun A18 () Bool)
(declare-fun A19 () Bool)
(declare-fun A20 () Bool)
(declare-fun A21 () Bool)
(declare-fun A22 () Bool)
(declare-fun A23 () Bool)
(declare-fun A24 () Bool)
(assert (let ((.def_0 (not A6))) (let ((.def_1 (not A5))) (let ((.def_2 (or .def_1 .def_0))) (let ((.def_3 (not .def_2))) (let ((.def_4 (not A10))) (let ((.def_5 (not A20))) (let ((.def_6 (or .def_5 .def_4))) (let ((.def_7 (or .def_6 .def_3))) (let ((.def_8 (not .def_7))) (let ((.def_9 (and .def_1 A11))) (let ((.def_10 (not A18))) (let ((.def_11 (and .def_10 A11))) (let ((.def_12 (not .def_11))) (let ((.def_13 (and .def_12 .def_9))) (let ((.def_14 (or .def_13 .def_8))) (let ((.def_15 (not A11))) (let ((.def_16 (and .def_15 .def_10))) (let ((.def_17 (and A23 A22))) (let ((.def_18 (or .def_17 .def_16))) (let ((.def_19 (or A20 A1))) (let ((.def_20 (not A2))) (let ((.def_21 (or .def_20 A14))) (let ((.def_22 (or .def_21 .def_19))) (let ((.def_23 (or .def_22 .def_18))) (let ((.def_24 (not .def_23))) (let ((.def_25 (and .def_24 .def_14))) (let ((.def_26 (not .def_25))) (let ((.def_27 (not A19))) (let ((.def_28 (or .def_1 .def_27))) (let ((.def_29 (not A17))) (let ((.def_30 (= .def_4 .def_29))) (let ((.def_31 (not .def_30))) (let ((.def_32 (and .def_31 .def_28))) (let ((.def_33 (= A18 .def_1))) (let ((.def_34 (or .def_15 A1))) (let ((.def_35 (or .def_34 .def_33))) (let ((.def_36 (or .def_35 .def_32))) (let ((.def_37 (not .def_36))) (let ((.def_38 (not A12))) (let ((.def_39 (and .def_38 A21))) (let ((.def_40 (not .def_39))) (let ((.def_41 (not A14))) (let ((.def_42 (not A23))) (let ((.def_43 (or .def_42 .def_41))) (let ((.def_44 (or .def_43 .def_40))) (let ((.def_45 (and .def_5 A19))) (let ((.def_46 (or A11 A12))) (let ((.def_47 (not .def_46))) (let ((.def_48 (or .def_47 .def_45))) (let ((.def_49 (and .def_48 .def_44))) (let ((.def_50 (not .def_49))) (let ((.def_51 (and .def_50 .def_37))) (let ((.def_52 (or .def_51 .def_26))) (let ((.def_53 (not .def_52))) (let ((.def_54 (not A1))) (let ((.def_55 (and .def_42 .def_54))) (let ((.def_56 (not A7))) (let ((.def_57 (and .def_56 A15))) (let ((.def_58 (and .def_57 .def_55))) (let ((.def_59 (not .def_58))) (let ((.def_60 (not A13))) (let ((.def_61 (not A21))) (let ((.def_62 (and .def_61 .def_60))) (let ((.def_63 (not .def_62))) (let ((.def_64 (= A12 A23))) (let ((.def_65 (and .def_64 .def_63))) (let ((.def_66 (not .def_65))) (let ((.def_67 (or .def_66 .def_59))) (let ((.def_68 (and A7 .def_60))) (let ((.def_69 (or A20 A21))) (let ((.def_70 (= .def_69 .def_68))) (let ((.def_71 (not .def_70))) (let ((.def_72 (not A9))) (let ((.def_73 (or A17 .def_72))) (let ((.def_74 (not .def_73))) (let ((.def_75 (not A8))) (let ((.def_76 (= A12 .def_75))) (let ((.def_77 (not .def_76))) (let ((.def_78 (and .def_77 .def_74))) (let ((.def_79 (not .def_78))) (let ((.def_80 (and .def_79 .def_71))) (let ((.def_81 (and .def_80 .def_67))) (let ((.def_82 (not .def_81))) (let ((.def_83 (not A4))) (let ((.def_84 (and .def_83 A9))) (let ((.def_85 (not .def_84))) (let ((.def_86 (and A3 A3))) (let ((.def_87 (= .def_86 .def_85))) (let ((.def_88 (or A5 .def_56))) (let ((.def_89 (not .def_88))) (let ((.def_90 (not A3))) (let ((.def_91 (or .def_90 A14))) (let ((.def_92 (or .def_91 .def_89))) (let ((.def_93 (not .def_92))) (let ((.def_94 (or .def_93 .def_87))) (let ((.def_95 (not .def_94))) (let ((.def_96 (or .def_42 A7))) (let ((.def_97 (or .def_42 .def_5))) (let ((.def_98 (or .def_97 .def_96))) (let ((.def_99 (not .def_98))) (let ((.def_100 (and A8 A18))) (let ((.def_101 (not .def_100))) (let ((.def_102 (or A9 .def_5))) (let ((.def_103 (not .def_102))) (let ((.def_104 (and .def_103 .def_101))) (let ((.def_105 (or .def_104 .def_99))) (let ((.def_106 (not .def_105))) (let ((.def_107 (or .def_106 .def_95))) (let ((.def_108 (and .def_107 .def_82))) (let ((.def_109 (not .def_108))) (let ((.def_110 (and .def_109 .def_53))) (let ((.def_111 (not .def_110))) (let ((.def_112 (and A1 A12))) (let ((.def_113 (not A24))) (let ((.def_114 (or A6 .def_113))) (let ((.def_115 (or .def_114 .def_112))) (let ((.def_116 (or A19 A4))) (let ((.def_117 (or A5 A11))) (let ((.def_118 (or .def_117 .def_116))) (let ((.def_119 (not .def_118))) (let ((.def_120 (and .def_119 .def_115))) (let ((.def_121 (not .def_120))) (let ((.def_122 (and A11 .def_4))) (let ((.def_123 (not .def_122))) (let ((.def_124 (or A0 A17))) (let ((.def_125 (not .def_124))) (let ((.def_126 (or .def_125 .def_123))) (let ((.def_127 (and .def_41 .def_15))) (let ((.def_128 (= .def_90 .def_41))) (let ((.def_129 (= .def_128 .def_127))) (let ((.def_130 (and .def_129 .def_126))) (let ((.def_131 (and .def_130 .def_121))) (let ((.def_132 (or A24 .def_90))) (let ((.def_133 (not A0))) (let ((.def_134 (and .def_133 .def_0))) (let ((.def_135 (or .def_134 .def_132))) (let ((.def_136 (not .def_135))) (let ((.def_137 (and A20 A19))) (let ((.def_138 (not .def_137))) (let ((.def_139 (and A12 A22))) (let ((.def_140 (and .def_139 .def_138))) (let ((.def_141 (or .def_140 .def_136))) (let ((.def_142 (or .def_75 A10))) (let ((.def_143 (or A20 .def_10))) (let ((.def_144 (not .def_143))) (let ((.def_145 (or .def_144 .def_142))) (let ((.def_146 (not .def_145))) (let ((.def_147 (or A21 .def_27))) (let ((.def_148 (or .def_133 .def_113))) (let ((.def_149 (= .def_148 .def_147))) (let ((.def_150 (not .def_149))) (let ((.def_151 (and .def_150 .def_146))) (let ((.def_152 (or .def_151 .def_141))) (let ((.def_153 (or .def_152 .def_131))) (let ((.def_154 (and A0 A2))) (let ((.def_155 (and .def_41 .def_42))) (let ((.def_156 (and .def_155 .def_154))) (let ((.def_157 (and A12 A18))) (let ((.def_158 (and .def_90 A5))) (let ((.def_159 (or .def_158 .def_157))) (let ((.def_160 (and .def_159 .def_156))) (let ((.def_161 (not .def_160))) (let ((.def_162 (or .def_4 .def_61))) (let ((.def_163 (or .def_1 .def_72))) (let ((.def_164 (not .def_163))) (let ((.def_165 (or .def_164 .def_162))) (let ((.def_166 (not .def_165))) (let ((.def_167 (and .def_20 .def_61))) (let ((.def_168 (not A16))) (let ((.def_169 (and .def_168 A20))) (let ((.def_170 (or .def_169 .def_167))) (let ((.def_171 (not .def_170))) (let ((.def_172 (and .def_171 .def_166))) (let ((.def_173 (not .def_172))) (let ((.def_174 (or .def_173 .def_161))) (let ((.def_175 (not .def_174))) (let ((.def_176 (and .def_56 A7))) (let ((.def_177 (or .def_90 .def_75))) (let ((.def_178 (not .def_177))) (let ((.def_179 (and .def_178 .def_176))) (let ((.def_180 (not .def_179))) (let ((.def_181 (and .def_0 .def_54))) (let ((.def_182 (and A0 A24))) (let ((.def_183 (not .def_182))) (let ((.def_184 (or .def_183 .def_181))) (let ((.def_185 (and .def_184 .def_180))) (let ((.def_186 (not .def_185))) (let ((.def_187 (or A7 A11))) (let ((.def_188 (not .def_187))) (let ((.def_189 (and A22 A2))) (let ((.def_190 (or .def_189 .def_188))) (let ((.def_191 (or .def_29 .def_20))) (let ((.def_192 (and A17 A17))) (let ((.def_193 (or .def_192 .def_191))) (let ((.def_194 (or .def_193 .def_190))) (let ((.def_195 (not .def_194))) (let ((.def_196 (or .def_195 .def_186))) (let ((.def_197 (not .def_196))) (let ((.def_198 (or .def_197 .def_175))) (let ((.def_199 (or .def_198 .def_153))) (let ((.def_200 (and .def_199 .def_111))) (let ((.def_201 (not .def_200))) .def_201)))))))))))))))))))))))))))))))))))))))))))))))))))))))))))))))))))))))))))))))))))))))))))))))))))))))))))))))))))))))))))))))))))))))))))))))))))))))))))))))))))))))))))))))))))))))))))))))))))))))))))
(check-sat)
